%% Data: บริษัทมีพนักงาน 50 คน, เลือกได้จาก 6 แบบ
n_gifts    = 6;
n_emp      = 50;
budget     = 75000;   % 75,000 บาท
max_weight = 120;     % 120 กก.

%%              G1    G2    G3    G4    G5    G6
price  = [  800, 1200, 1500,  600, 2000,  950];
weight = [    2,    3,    4,    1,    5,    2];
score  = [    6,    7,    8,    4,   10,    6];

%% คำตอบที่ดี: คะแนนรวม >= 350 และ budget/weight ไม่เกิน
